63 65 90 10 48 89 
69 99 15 22 74 56 24 
2 21 28 76 78 50 13 
27 98 16 53 57 37 93 60 
95 52 47 18 6 96 91 
14 61 92 94 66 77 
75 73 34 26 4 
72 39 41 40 3 25 
12 82 7 32 20 70 
23 59 87 17 100 58 
62 51 79 35 80 68 1 
83 88 11 64 49 46 
31 5 86 85 54 
29 19 55 
45 30 81 
42 44 8 84 97 
36 38 43 
33 71 9 
67 

